\ Model 3 bus OPF_copy
\ LP format - for model browsing. Use MPS format to capture full model detail.
Minimize
  + 949 Constant
Subject To
 NetBus[1]: Pgen[1] - PF[1,0] - PF[1,1] - PF[1,2] = 550
Bounds
 -infinity <= Pgen[1] <= 400
 Constant = 1
End
